\ENCODING=ISO-8859-1
\Problem name: 

Maximize
 obj: 62067 d_0 - 34 d_1 - 38 d_2 - 71 d_3 - 65 d_4 - 23 d_5 - 77 d_6 - 9 d_7
      - 89 d_8 - 23 d_9 - 66 d_10 - 64 d_11 - 33 d_12 - 107 d_13 - 43 d_14
      - 55 d_15 - 98 d_16 - 42 d_17 - 114 d_18 - 65 d_19 - 84 d_20 - 67 d_21
      - 62 d_22 - 74 d_23 - 82 d_24 - 37 d_25 - 89 d_26 - 96 d_27 - 80 d_28
      - 38 d_29 - 102 d_30 - 82 d_31 - 69 d_32 - 58 d_33 - 25 d_34 - 31 d_35
      - 57 d_36 - 50 d_37 - 86 d_38 - 93 d_39 - 19 d_40 - 74 d_41 - 89 d_42
      - 12 d_43 - 77 d_44 - 54 d_45 - 94 d_46 - 84 d_47 - 27 d_48 - 72 d_49
      - 81 d_50 - 87 d_51 - 58 d_52 - 86 d_53 - 58 d_54 - 46 d_55 - 18 d_56
      - 55 d_57 - 44 d_58 - 70 d_59 - 13 d_60 - 44 d_61 - 37 d_62 - 17 d_63
      - 13 d_64 - 82 d_65 - 47 d_66 - 111 d_67 - 42 d_68 - 98 d_69 - 95 d_70
      - 80 d_71 - 98 d_72 - 99 d_73 - 14 d_74 - 57 d_75 - 6 d_76 - 89 d_77
      - 59 d_78 - 101 d_79 - 75 d_80 - 43 d_81 - 15 d_82 - 57 d_83 - 81 d_84
      - 72 d_85 - 33 d_86 - 80 d_87 - 46 d_88 - 22 d_89 - 73 d_90 - 58 d_91
      - 94 d_92 - 79 d_93 - 53 d_94 - 25 d_95 - 70 d_96 - 101 d_97 - 68 d_98
      - 84 d_99
Subject To
 c1:  552 d_0 + 505 d_1 + 457 d_2 + 507 d_3 + 517 d_4 + 439 d_5 + 558 d_6
      + 496 d_7 + 400 d_8 + 379 d_9 + 529 d_10 + 517 d_11 + 569 d_12 + 529 d_13
      + 509 d_14 + 547 d_15 + 461 d_16 + 443 d_17 + 600 d_18 + 468 d_19
      + 452 d_20 + 436 d_21 + 525 d_22 + 585 d_23 + 595 d_24 + 485 d_25
      + 386 d_26 + 419 d_27 + 476 d_28 + 586 d_29 + 425 d_30 + 438 d_31
      + 631 d_32 + 456 d_33 + 586 d_34 + 378 d_35 + 467 d_36 + 412 d_37
      + 451 d_38 + 440 d_39 + 621 d_40 + 436 d_41 + 462 d_42 + 523 d_43
      + 622 d_44 + 367 d_45 + 427 d_46 + 477 d_47 + 572 d_48 + 480 d_49
      + 575 d_50 + 595 d_51 + 415 d_52 + 485 d_53 + 490 d_54 + 404 d_55
      + 532 d_56 + 516 d_57 + 598 d_58 + 531 d_59 + 481 d_60 + 558 d_61
      + 397 d_62 + 452 d_63 + 572 d_64 + 350 d_65 + 528 d_66 + 422 d_67
      + 377 d_68 + 434 d_69 + 598 d_70 + 485 d_71 + 441 d_72 + 523 d_73
      + 326 d_74 + 209 d_75 + 625 d_76 + 445 d_77 + 505 d_78 + 355 d_79
      + 368 d_80 + 556 d_81 + 490 d_82 + 474 d_83 + 520 d_84 + 668 d_85
      + 505 d_86 + 417 d_87 + 492 d_88 + 464 d_89 + 547 d_90 + 488 d_91
      + 508 d_92 + 586 d_93 + 585 d_94 + 637 d_95 + 510 d_96 + 543 d_97
      + 363 d_98 + 553 d_99 <= 416
 c2:  552 d_0 + 505 d_1 + 457 d_2 + 507 d_3 + 517 d_4 + 439 d_5 + 558 d_6
      + 496 d_7 + 400 d_8 + 379 d_9 + 529 d_10 + 517 d_11 + 569 d_12 + 529 d_13
      + 509 d_14 + 547 d_15 + 461 d_16 + 443 d_17 + 600 d_18 + 468 d_19
      + 452 d_20 + 436 d_21 + 525 d_22 + 585 d_23 + 595 d_24 + 485 d_25
      + 386 d_26 + 419 d_27 + 476 d_28 + 586 d_29 + 425 d_30 + 438 d_31
      + 631 d_32 + 456 d_33 + 586 d_34 + 378 d_35 + 467 d_36 + 412 d_37
      + 451 d_38 + 440 d_39 + 621 d_40 + 436 d_41 + 462 d_42 + 523 d_43
      + 622 d_44 + 367 d_45 + 427 d_46 + 477 d_47 + 572 d_48 + 480 d_49
      + 575 d_50 + 595 d_51 + 415 d_52 + 485 d_53 + 490 d_54 + 404 d_55
      + 532 d_56 + 516 d_57 + 598 d_58 + 531 d_59 + 481 d_60 + 558 d_61
      + 397 d_62 + 452 d_63 + 572 d_64 + 350 d_65 + 528 d_66 + 422 d_67
      + 377 d_68 + 434 d_69 + 598 d_70 + 485 d_71 + 441 d_72 + 523 d_73
      + 326 d_74 + 209 d_75 + 625 d_76 + 445 d_77 + 505 d_78 + 355 d_79
      + 368 d_80 + 556 d_81 + 490 d_82 + 474 d_83 + 520 d_84 + 668 d_85
      + 505 d_86 + 417 d_87 + 492 d_88 + 464 d_89 + 547 d_90 + 488 d_91
      + 508 d_92 + 586 d_93 + 585 d_94 + 637 d_95 + 510 d_96 + 543 d_97
      + 363 d_98 + 553 d_99 <= 379
 c3:  552 d_0 + 505 d_1 + 457 d_2 + 507 d_3 + 517 d_4 + 439 d_5 + 558 d_6
      + 496 d_7 + 400 d_8 + 379 d_9 + 529 d_10 + 517 d_11 + 569 d_12 + 529 d_13
      + 509 d_14 + 547 d_15 + 461 d_16 + 443 d_17 + 600 d_18 + 468 d_19
      + 452 d_20 + 436 d_21 + 525 d_22 + 585 d_23 + 595 d_24 + 485 d_25
      + 386 d_26 + 419 d_27 + 476 d_28 + 586 d_29 + 425 d_30 + 438 d_31
      + 631 d_32 + 456 d_33 + 586 d_34 + 378 d_35 + 467 d_36 + 412 d_37
      + 451 d_38 + 440 d_39 + 621 d_40 + 436 d_41 + 462 d_42 + 523 d_43
      + 622 d_44 + 367 d_45 + 427 d_46 + 477 d_47 + 572 d_48 + 480 d_49
      + 575 d_50 + 595 d_51 + 415 d_52 + 485 d_53 + 490 d_54 + 404 d_55
      + 532 d_56 + 516 d_57 + 598 d_58 + 531 d_59 + 481 d_60 + 558 d_61
      + 397 d_62 + 452 d_63 + 572 d_64 + 350 d_65 + 528 d_66 + 422 d_67
      + 377 d_68 + 434 d_69 + 598 d_70 + 485 d_71 + 441 d_72 + 523 d_73
      + 326 d_74 + 209 d_75 + 625 d_76 + 445 d_77 + 505 d_78 + 355 d_79
      + 368 d_80 + 556 d_81 + 490 d_82 + 474 d_83 + 520 d_84 + 668 d_85
      + 505 d_86 + 417 d_87 + 492 d_88 + 464 d_89 + 547 d_90 + 488 d_91
      + 508 d_92 + 586 d_93 + 585 d_94 + 637 d_95 + 510 d_96 + 543 d_97
      + 363 d_98 + 553 d_99 <= 385
 c4:  552 d_0 + 505 d_1 + 457 d_2 + 507 d_3 + 517 d_4 + 439 d_5 + 558 d_6
      + 496 d_7 + 400 d_8 + 379 d_9 + 529 d_10 + 517 d_11 + 569 d_12 + 529 d_13
      + 509 d_14 + 547 d_15 + 461 d_16 + 443 d_17 + 600 d_18 + 468 d_19
      + 452 d_20 + 436 d_21 + 525 d_22 + 585 d_23 + 595 d_24 + 485 d_25
      + 386 d_26 + 419 d_27 + 476 d_28 + 586 d_29 + 425 d_30 + 438 d_31
      + 631 d_32 + 456 d_33 + 586 d_34 + 378 d_35 + 467 d_36 + 412 d_37
      + 451 d_38 + 440 d_39 + 621 d_40 + 436 d_41 + 462 d_42 + 523 d_43
      + 622 d_44 + 367 d_45 + 427 d_46 + 477 d_47 + 572 d_48 + 480 d_49
      + 575 d_50 + 595 d_51 + 415 d_52 + 485 d_53 + 490 d_54 + 404 d_55
      + 532 d_56 + 516 d_57 + 598 d_58 + 531 d_59 + 481 d_60 + 558 d_61
      + 397 d_62 + 452 d_63 + 572 d_64 + 350 d_65 + 528 d_66 + 422 d_67
      + 377 d_68 + 434 d_69 + 598 d_70 + 485 d_71 + 441 d_72 + 523 d_73
      + 326 d_74 + 209 d_75 + 625 d_76 + 445 d_77 + 505 d_78 + 355 d_79
      + 368 d_80 + 556 d_81 + 490 d_82 + 474 d_83 + 520 d_84 + 668 d_85
      + 505 d_86 + 417 d_87 + 492 d_88 + 464 d_89 + 547 d_90 + 488 d_91
      + 508 d_92 + 586 d_93 + 585 d_94 + 637 d_95 + 510 d_96 + 543 d_97
      + 363 d_98 + 553 d_99 <= 374
 c5:  552 d_0 + 505 d_1 + 457 d_2 + 507 d_3 + 517 d_4 + 439 d_5 + 558 d_6
      + 496 d_7 + 400 d_8 + 379 d_9 + 529 d_10 + 517 d_11 + 569 d_12 + 529 d_13
      + 509 d_14 + 547 d_15 + 461 d_16 + 443 d_17 + 600 d_18 + 468 d_19
      + 452 d_20 + 436 d_21 + 525 d_22 + 585 d_23 + 595 d_24 + 485 d_25
      + 386 d_26 + 419 d_27 + 476 d_28 + 586 d_29 + 425 d_30 + 438 d_31
      + 631 d_32 + 456 d_33 + 586 d_34 + 378 d_35 + 467 d_36 + 412 d_37
      + 451 d_38 + 440 d_39 + 621 d_40 + 436 d_41 + 462 d_42 + 523 d_43
      + 622 d_44 + 367 d_45 + 427 d_46 + 477 d_47 + 572 d_48 + 480 d_49
      + 575 d_50 + 595 d_51 + 415 d_52 + 485 d_53 + 490 d_54 + 404 d_55
      + 532 d_56 + 516 d_57 + 598 d_58 + 531 d_59 + 481 d_60 + 558 d_61
      + 397 d_62 + 452 d_63 + 572 d_64 + 350 d_65 + 528 d_66 + 422 d_67
      + 377 d_68 + 434 d_69 + 598 d_70 + 485 d_71 + 441 d_72 + 523 d_73
      + 326 d_74 + 209 d_75 + 625 d_76 + 445 d_77 + 505 d_78 + 355 d_79
      + 368 d_80 + 556 d_81 + 490 d_82 + 474 d_83 + 520 d_84 + 668 d_85
      + 505 d_86 + 417 d_87 + 492 d_88 + 464 d_89 + 547 d_90 + 488 d_91
      + 508 d_92 + 586 d_93 + 585 d_94 + 637 d_95 + 510 d_96 + 543 d_97
      + 363 d_98 + 553 d_99 <= 398
 c6:  552 d_0 + 505 d_1 + 457 d_2 + 507 d_3 + 517 d_4 + 439 d_5 + 558 d_6
      + 496 d_7 + 400 d_8 + 379 d_9 + 529 d_10 + 517 d_11 + 569 d_12 + 529 d_13
      + 509 d_14 + 547 d_15 + 461 d_16 + 443 d_17 + 600 d_18 + 468 d_19
      + 452 d_20 + 436 d_21 + 525 d_22 + 585 d_23 + 595 d_24 + 485 d_25
      + 386 d_26 + 419 d_27 + 476 d_28 + 586 d_29 + 425 d_30 + 438 d_31
      + 631 d_32 + 456 d_33 + 586 d_34 + 378 d_35 + 467 d_36 + 412 d_37
      + 451 d_38 + 440 d_39 + 621 d_40 + 436 d_41 + 462 d_42 + 523 d_43
      + 622 d_44 + 367 d_45 + 427 d_46 + 477 d_47 + 572 d_48 + 480 d_49
      + 575 d_50 + 595 d_51 + 415 d_52 + 485 d_53 + 490 d_54 + 404 d_55
      + 532 d_56 + 516 d_57 + 598 d_58 + 531 d_59 + 481 d_60 + 558 d_61
      + 397 d_62 + 452 d_63 + 572 d_64 + 350 d_65 + 528 d_66 + 422 d_67
      + 377 d_68 + 434 d_69 + 598 d_70 + 485 d_71 + 441 d_72 + 523 d_73
      + 326 d_74 + 209 d_75 + 625 d_76 + 445 d_77 + 505 d_78 + 355 d_79
      + 368 d_80 + 556 d_81 + 490 d_82 + 474 d_83 + 520 d_84 + 668 d_85
      + 505 d_86 + 417 d_87 + 492 d_88 + 464 d_89 + 547 d_90 + 488 d_91
      + 508 d_92 + 586 d_93 + 585 d_94 + 637 d_95 + 510 d_96 + 543 d_97
      + 363 d_98 + 553 d_99 <= 385
 c7:  552 d_0 + 505 d_1 + 457 d_2 + 507 d_3 + 517 d_4 + 439 d_5 + 558 d_6
      + 496 d_7 + 400 d_8 + 379 d_9 + 529 d_10 + 517 d_11 + 569 d_12 + 529 d_13
      + 509 d_14 + 547 d_15 + 461 d_16 + 443 d_17 + 600 d_18 + 468 d_19
      + 452 d_20 + 436 d_21 + 525 d_22 + 585 d_23 + 595 d_24 + 485 d_25
      + 386 d_26 + 419 d_27 + 476 d_28 + 586 d_29 + 425 d_30 + 438 d_31
      + 631 d_32 + 456 d_33 + 586 d_34 + 378 d_35 + 467 d_36 + 412 d_37
      + 451 d_38 + 440 d_39 + 621 d_40 + 436 d_41 + 462 d_42 + 523 d_43
      + 622 d_44 + 367 d_45 + 427 d_46 + 477 d_47 + 572 d_48 + 480 d_49
      + 575 d_50 + 595 d_51 + 415 d_52 + 485 d_53 + 490 d_54 + 404 d_55
      + 532 d_56 + 516 d_57 + 598 d_58 + 531 d_59 + 481 d_60 + 558 d_61
      + 397 d_62 + 452 d_63 + 572 d_64 + 350 d_65 + 528 d_66 + 422 d_67
      + 377 d_68 + 434 d_69 + 598 d_70 + 485 d_71 + 441 d_72 + 523 d_73
      + 326 d_74 + 209 d_75 + 625 d_76 + 445 d_77 + 505 d_78 + 355 d_79
      + 368 d_80 + 556 d_81 + 490 d_82 + 474 d_83 + 520 d_84 + 668 d_85
      + 505 d_86 + 417 d_87 + 492 d_88 + 464 d_89 + 547 d_90 + 488 d_91
      + 508 d_92 + 586 d_93 + 585 d_94 + 637 d_95 + 510 d_96 + 543 d_97
      + 363 d_98 + 553 d_99 <= 388
 c8:  552 d_0 + 505 d_1 + 457 d_2 + 507 d_3 + 517 d_4 + 439 d_5 + 558 d_6
      + 496 d_7 + 400 d_8 + 379 d_9 + 529 d_10 + 517 d_11 + 569 d_12 + 529 d_13
      + 509 d_14 + 547 d_15 + 461 d_16 + 443 d_17 + 600 d_18 + 468 d_19
      + 452 d_20 + 436 d_21 + 525 d_22 + 585 d_23 + 595 d_24 + 485 d_25
      + 386 d_26 + 419 d_27 + 476 d_28 + 586 d_29 + 425 d_30 + 438 d_31
      + 631 d_32 + 456 d_33 + 586 d_34 + 378 d_35 + 467 d_36 + 412 d_37
      + 451 d_38 + 440 d_39 + 621 d_40 + 436 d_41 + 462 d_42 + 523 d_43
      + 622 d_44 + 367 d_45 + 427 d_46 + 477 d_47 + 572 d_48 + 480 d_49
      + 575 d_50 + 595 d_51 + 415 d_52 + 485 d_53 + 490 d_54 + 404 d_55
      + 532 d_56 + 516 d_57 + 598 d_58 + 531 d_59 + 481 d_60 + 558 d_61
      + 397 d_62 + 452 d_63 + 572 d_64 + 350 d_65 + 528 d_66 + 422 d_67
      + 377 d_68 + 434 d_69 + 598 d_70 + 485 d_71 + 441 d_72 + 523 d_73
      + 326 d_74 + 209 d_75 + 625 d_76 + 445 d_77 + 505 d_78 + 355 d_79
      + 368 d_80 + 556 d_81 + 490 d_82 + 474 d_83 + 520 d_84 + 668 d_85
      + 505 d_86 + 417 d_87 + 492 d_88 + 464 d_89 + 547 d_90 + 488 d_91
      + 508 d_92 + 586 d_93 + 585 d_94 + 637 d_95 + 510 d_96 + 543 d_97
      + 363 d_98 + 553 d_99 <= 411
 c9:  552 d_0 + 505 d_1 + 457 d_2 + 507 d_3 + 517 d_4 + 439 d_5 + 558 d_6
      + 496 d_7 + 400 d_8 + 379 d_9 + 529 d_10 + 517 d_11 + 569 d_12 + 529 d_13
      + 509 d_14 + 547 d_15 + 461 d_16 + 443 d_17 + 600 d_18 + 468 d_19
      + 452 d_20 + 436 d_21 + 525 d_22 + 585 d_23 + 595 d_24 + 485 d_25
      + 386 d_26 + 419 d_27 + 476 d_28 + 586 d_29 + 425 d_30 + 438 d_31
      + 631 d_32 + 456 d_33 + 586 d_34 + 378 d_35 + 467 d_36 + 412 d_37
      + 451 d_38 + 440 d_39 + 621 d_40 + 436 d_41 + 462 d_42 + 523 d_43
      + 622 d_44 + 367 d_45 + 427 d_46 + 477 d_47 + 572 d_48 + 480 d_49
      + 575 d_50 + 595 d_51 + 415 d_52 + 485 d_53 + 490 d_54 + 404 d_55
      + 532 d_56 + 516 d_57 + 598 d_58 + 531 d_59 + 481 d_60 + 558 d_61
      + 397 d_62 + 452 d_63 + 572 d_64 + 350 d_65 + 528 d_66 + 422 d_67
      + 377 d_68 + 434 d_69 + 598 d_70 + 485 d_71 + 441 d_72 + 523 d_73
      + 326 d_74 + 209 d_75 + 625 d_76 + 445 d_77 + 505 d_78 + 355 d_79
      + 368 d_80 + 556 d_81 + 490 d_82 + 474 d_83 + 520 d_84 + 668 d_85
      + 505 d_86 + 417 d_87 + 492 d_88 + 464 d_89 + 547 d_90 + 488 d_91
      + 508 d_92 + 586 d_93 + 585 d_94 + 637 d_95 + 510 d_96 + 543 d_97
      + 363 d_98 + 553 d_99 <= 398
 c10: 552 d_0 + 505 d_1 + 457 d_2 + 507 d_3 + 517 d_4 + 439 d_5 + 558 d_6
      + 496 d_7 + 400 d_8 + 379 d_9 + 529 d_10 + 517 d_11 + 569 d_12 + 529 d_13
      + 509 d_14 + 547 d_15 + 461 d_16 + 443 d_17 + 600 d_18 + 468 d_19
      + 452 d_20 + 436 d_21 + 525 d_22 + 585 d_23 + 595 d_24 + 485 d_25
      + 386 d_26 + 419 d_27 + 476 d_28 + 586 d_29 + 425 d_30 + 438 d_31
      + 631 d_32 + 456 d_33 + 586 d_34 + 378 d_35 + 467 d_36 + 412 d_37
      + 451 d_38 + 440 d_39 + 621 d_40 + 436 d_41 + 462 d_42 + 523 d_43
      + 622 d_44 + 367 d_45 + 427 d_46 + 477 d_47 + 572 d_48 + 480 d_49
      + 575 d_50 + 595 d_51 + 415 d_52 + 485 d_53 + 490 d_54 + 404 d_55
      + 532 d_56 + 516 d_57 + 598 d_58 + 531 d_59 + 481 d_60 + 558 d_61
      + 397 d_62 + 452 d_63 + 572 d_64 + 350 d_65 + 528 d_66 + 422 d_67
      + 377 d_68 + 434 d_69 + 598 d_70 + 485 d_71 + 441 d_72 + 523 d_73
      + 326 d_74 + 209 d_75 + 625 d_76 + 445 d_77 + 505 d_78 + 355 d_79
      + 368 d_80 + 556 d_81 + 490 d_82 + 474 d_83 + 520 d_84 + 668 d_85
      + 505 d_86 + 417 d_87 + 492 d_88 + 464 d_89 + 547 d_90 + 488 d_91
      + 508 d_92 + 586 d_93 + 585 d_94 + 637 d_95 + 510 d_96 + 543 d_97
      + 363 d_98 + 553 d_99 <= 388
Bounds
 0 <= d_0 <= 1
 0 <= d_1 <= 1
 0 <= d_2 <= 1
 0 <= d_3 <= 1
 0 <= d_4 <= 1
 0 <= d_5 <= 1
 0 <= d_6 <= 1
 0 <= d_7 <= 1
 0 <= d_8 <= 1
 0 <= d_9 <= 1
 0 <= d_10 <= 1
 0 <= d_11 <= 1
 0 <= d_12 <= 1
 0 <= d_13 <= 1
 0 <= d_14 <= 1
 0 <= d_15 <= 1
 0 <= d_16 <= 1
 0 <= d_17 <= 1
 0 <= d_18 <= 1
 0 <= d_19 <= 1
 0 <= d_20 <= 1
 0 <= d_21 <= 1
 0 <= d_22 <= 1
 0 <= d_23 <= 1
 0 <= d_24 <= 1
 0 <= d_25 <= 1
 0 <= d_26 <= 1
 0 <= d_27 <= 1
 0 <= d_28 <= 1
 0 <= d_29 <= 1
 0 <= d_30 <= 1
 0 <= d_31 <= 1
 0 <= d_32 <= 1
 0 <= d_33 <= 1
 0 <= d_34 <= 1
 0 <= d_35 <= 1
 0 <= d_36 <= 1
 0 <= d_37 <= 1
 0 <= d_38 <= 1
 0 <= d_39 <= 1
 0 <= d_40 <= 1
 0 <= d_41 <= 1
 0 <= d_42 <= 1
 0 <= d_43 <= 1
 0 <= d_44 <= 1
 0 <= d_45 <= 1
 0 <= d_46 <= 1
 0 <= d_47 <= 1
 0 <= d_48 <= 1
 0 <= d_49 <= 1
 0 <= d_50 <= 1
 0 <= d_51 <= 1
 0 <= d_52 <= 1
 0 <= d_53 <= 1
 0 <= d_54 <= 1
 0 <= d_55 <= 1
 0 <= d_56 <= 1
 0 <= d_57 <= 1
 0 <= d_58 <= 1
 0 <= d_59 <= 1
 0 <= d_60 <= 1
 0 <= d_61 <= 1
 0 <= d_62 <= 1
 0 <= d_63 <= 1
 0 <= d_64 <= 1
 0 <= d_65 <= 1
 0 <= d_66 <= 1
 0 <= d_67 <= 1
 0 <= d_68 <= 1
 0 <= d_69 <= 1
 0 <= d_70 <= 1
 0 <= d_71 <= 1
 0 <= d_72 <= 1
 0 <= d_73 <= 1
 0 <= d_74 <= 1
 0 <= d_75 <= 1
 0 <= d_76 <= 1
 0 <= d_77 <= 1
 0 <= d_78 <= 1
 0 <= d_79 <= 1
 0 <= d_80 <= 1
 0 <= d_81 <= 1
 0 <= d_82 <= 1
 0 <= d_83 <= 1
 0 <= d_84 <= 1
 0 <= d_85 <= 1
 0 <= d_86 <= 1
 0 <= d_87 <= 1
 0 <= d_88 <= 1
 0 <= d_89 <= 1
 0 <= d_90 <= 1
 0 <= d_91 <= 1
 0 <= d_92 <= 1
 0 <= d_93 <= 1
 0 <= d_94 <= 1
 0 <= d_95 <= 1
 0 <= d_96 <= 1
 0 <= d_97 <= 1
 0 <= d_98 <= 1
 0 <= d_99 <= 1
Binaries
 d_0  d_1  d_2  d_3  d_4  d_5  d_6  d_7  d_8  d_9  d_10  d_11  d_12  d_13 
 d_14  d_15  d_16  d_17  d_18  d_19  d_20  d_21  d_22  d_23  d_24  d_25  d_26 
 d_27  d_28  d_29  d_30  d_31  d_32  d_33  d_34  d_35  d_36  d_37  d_38  d_39 
 d_40  d_41  d_42  d_43  d_44  d_45  d_46  d_47  d_48  d_49  d_50  d_51  d_52 
 d_53  d_54  d_55  d_56  d_57  d_58  d_59  d_60  d_61  d_62  d_63  d_64  d_65 
 d_66  d_67  d_68  d_69  d_70  d_71  d_72  d_73  d_74  d_75  d_76  d_77  d_78 
 d_79  d_80  d_81  d_82  d_83  d_84  d_85  d_86  d_87  d_88  d_89  d_90  d_91 
 d_92  d_93  d_94  d_95  d_96  d_97  d_98  d_99 
End
